c colouring generated by benchmark framework
p edge 425 8688
v 1 0
v 2 1
v 3 11
v 4 12
v 5 13
v 6 14
v 7 15
v 8 16
v 9 17
v 10 18
v 11 19
v 12 20
v 13 21
v 14 22
v 15 23
v 16 24
v 17 0
v 18 28
v 19 27
v 20 26
v 21 25
v 22 24
v 23 23
v 24 22
v 25 21
v 26 20
v 27 1
v 28 15
v 29 16
v 30 17
v 31 18
v 32 19
v 33 4
v 34 0
v 35 0
v 36 0
v 37 0
v 38 4
v 39 0
v 40 0
v 41 0
v 42 0
v 43 7
v 44 8
v 45 5
v 46 0
v 47 0
v 48 0
v 49 0
v 50 25
v 51 0
v 52 5
v 53 0
v 54 0
v 55 0
v 56 7
v 57 7
v 58 8
v 59 7
v 60 8
v 61 11
v 62 11
v 63 11
v 64 7
v 65 7
v 66 10
v 67 12
v 68 12
v 69 9
v 70 2
v 71 2
v 72 2
v 73 2
v 74 2
v 75 2
v 76 2
v 77 2
v 78 2
v 79 3
v 80 4
v 81 5
v 82 6
v 83 7
v 84 8
v 85 9
v 86 10
v 87 2
v 88 2
v 89 2
v 90 0
v 91 3
v 92 5
v 93 3
v 94 3
v 95 3
v 96 5
v 97 6
v 98 7
v 99 5
v 100 5
v 101 6
v 102 10
v 103 9
v 104 6
v 105 7
v 106 0
v 107 0
v 108 11
v 109 10
v 110 9
v 111 9
v 112 12
v 113 10
v 114 12
v 115 11
v 116 11
v 117 11
v 118 0
v 119 0
v 120 11
v 121 14
v 122 0
v 123 12
v 124 13
v 125 14
v 126 25
v 127 0
v 128 29
v 129 6
v 130 5
v 131 6
v 132 5
v 133 6
v 134 5
v 135 5
v 136 5
v 137 6
v 138 5
v 139 6
v 140 0
v 141 7
v 142 7
v 143 7
v 144 8
v 145 7
v 146 7
v 147 7
v 148 8
v 149 7
v 150 7
v 151 0
v 152 7
v 153 7
v 154 8
v 155 7
v 156 6
v 157 7
v 158 0
v 159 8
v 160 8
v 161 9
v 162 11
v 163 10
v 164 8
v 165 11
v 166 0
v 167 0
v 168 10
v 169 0
v 170 8
v 171 8
v 172 10
v 173 25
v 174 10
v 175 9
v 176 8
v 177 11
v 178 11
v 179 11
v 180 8
v 181 11
v 182 10
v 183 12
v 184 9
v 185 8
v 186 11
v 187 10
v 188 12
v 189 13
v 190 8
v 191 13
v 192 13
v 193 14
v 194 10
v 195 14
v 196 12
v 197 14
v 198 14
v 199 0
v 200 26
v 201 27
v 202 26
v 203 27
v 204 28
v 205 27
v 206 26
v 207 26
v 208 0
v 209 29
v 210 10
v 211 12
v 212 11
v 213 10
v 214 12
v 215 13
v 216 11
v 217 10
v 218 11
v 219 12
v 220 13
v 221 14
v 222 12
v 223 14
v 224 13
v 225 14
v 226 14
v 227 0
v 228 25
v 229 26
v 230 25
v 231 26
v 232 25
v 233 0
v 234 29
v 235 6
v 236 4
v 237 4
v 238 0
v 239 0
v 240 6
v 241 3
v 242 3
v 243 5
v 244 2
v 245 3
v 246 2
v 247 3
v 248 9
v 249 8
v 250 7
v 251 6
v 252 5
v 253 4
v 254 3
v 255 2
v 256 6
v 257 7
v 258 3
v 259 6
v 260 9
v 261 6
v 262 7
v 263 8
v 264 0
v 265 9
v 266 10
v 267 9
v 268 0
v 269 10
v 270 0
v 271 11
v 272 25
v 273 25
v 274 0
v 275 12
v 276 6
v 277 7
v 278 7
v 279 6
v 280 7
v 281 9
v 282 8
v 283 6
v 284 6
v 285 9
v 286 7
v 287 7
v 288 7
v 289 7
v 290 7
v 291 8
v 292 7
v 293 7
v 294 7
v 295 7
v 296 8
v 297 9
v 298 8
v 299 8
v 300 7
v 301 7
v 302 7
v 303 8
v 304 7
v 305 3
v 306 7
v 307 8
v 308 7
v 309 7
v 310 0
v 311 8
v 312 0
v 313 9
v 314 11
v 315 10
v 316 9
v 317 11
v 318 5
v 319 10
v 320 4
v 321 4
v 322 0
v 323 0
v 324 0
v 325 9
v 326 0
v 327 9
v 328 9
v 329 10
v 330 10
v 331 10
v 332 11
v 333 10
v 334 11
v 335 12
v 336 11
v 337 12
v 338 12
v 339 0
v 340 25
v 341 26
v 342 25
v 343 0
v 344 13
v 345 5
v 346 5
v 347 11
v 348 5
v 349 5
v 350 12
v 351 11
v 352 12
v 353 13
v 354 10
v 355 13
v 356 13
v 357 14
v 358 14
v 359 0
v 360 29
v 361 0
v 362 0
v 363 29
v 364 26
v 365 0
v 366 26
v 367 0
v 368 8
v 369 9
v 370 7
v 371 10
v 372 8
v 373 10
v 374 9
v 375 0
v 376 10
v 377 11
v 378 12
v 379 11
v 380 0
v 381 11
v 382 13
v 383 11
v 384 13
v 385 13
v 386 0
v 387 25
v 388 0
v 389 14
v 390 6
v 391 6
v 392 6
v 393 7
v 394 6
v 395 7
v 396 8
v 397 8
v 398 10
v 399 0
v 400 9
v 401 10
v 402 25
v 403 26
v 404 25
v 405 0
v 406 11
v 407 6
v 408 6
v 409 6
v 410 7
v 411 6
v 412 7
v 413 8
v 414 8
v 415 0
v 416 9
v 417 25
v 418 0
v 419 10
v 420 5
v 421 5
v 422 0
v 423 5
v 424 0
v 425 5
